(declare-const a Int)

(push)
(assert (not  ( 101nd ( 101nd (= 1 1) (= 1 1) ) (= 1 1) )  ))
(check-sat)
(get-model)
(pop)
(push)
(assert (not  ( and ( => err (= 1 1) ) ( => ( - a 105 ) (= 1 1) ) )  ))
(check-sat)
(get-model)
(pop)